%nprocshared=12
# opt freq=noraman hf/6-311g geom=connectivity

M0001

0 1
 C                 -0.05008768   -0.02652898    0.76685631
 H                 -0.06312873   -0.03944895    1.89066035
 C                 -0.21450189    1.41142902    0.33940460
 C                 -0.10012515    1.80064651   -0.99620173
 C                 -0.46693373    2.38344560    1.31040972
 C                 -0.22536749    3.13725579   -1.35510948
 H                  0.06962750    1.02941940   -1.76287579
 C                 -0.59562392    3.71990291    0.94956460
 H                 -0.56359473    2.09419573    2.36358304
 C                 -0.47152429    4.09999283   -0.38225171
 H                 -0.13044849    3.43041771   -2.40558818
 H                 -0.79385308    4.47450046    1.71767231
 H                 -0.56882564    5.15321642   -0.66412348
 C                  1.30489596   -0.54516872    0.34852783
 C                  2.39678463   -0.30037603    1.18757932
 C                  1.50794132   -1.24744122   -0.83898529
 C                  3.66497849   -0.74964080    0.84183290
 H                  2.25411368    0.25312109    2.12306431
 C                  2.77826586   -1.69856890   -1.18199036
 H                  0.65977163   -1.45436022   -1.50402943
 C                  3.85879437   -1.45058607   -0.34418053
 H                  4.51312712   -0.55121341    1.50507863
 H                  2.92438440   -2.25140672   -2.11566355
 H                  4.85803712   -1.80569941   -0.61528010
 C                 -1.18616694   -0.91240265    0.31965359
 C                 -1.71911135   -0.86369151   -0.96956041
 C                 -1.72103036   -1.82097697    1.23803457
 C                 -2.76700862   -1.70206983   -1.33288774
 H                 -1.30822538   -0.14797135   -1.69974611
 C                 -2.76644436   -2.66056187    0.87229832
 H                 -1.31445829   -1.87504761    2.25498809
 C                 -3.29267970   -2.60261690   -0.41374454
 H                 -3.17790904   -1.65044388   -2.34637870
 H                 -3.17622520   -3.36862642    1.59981374
 H                 -4.11744864   -3.26269498   -0.70042509

 1 2 1.0 3 1.0 14 1.0 25 1.0
 2
 3 4 1.5 5 1.5
 4 6 1.5 7 1.0
 5 8 1.5 9 1.0
 6 10 1.5 11 1.0
 7
 8 10 1.5 12 1.0
 9
 10 13 1.0
 11
 12
 13
 14 15 1.5 16 1.5
 15 17 1.5 18 1.0
 16 19 1.5 20 1.0
 17 21 1.5 22 1.0
 18
 19 21 1.5 23 1.0
 20
 21 24 1.0
 22
 23
 24
 25 26 1.5 27 1.5
 26 28 1.5 29 1.0
 27 30 1.5 31 1.0
 28 32 1.5 33 1.0
 29
 30 32 1.5 34 1.0
 31
 32 35 1.0
 33
 34
 35

