%nprocshared=12
# opt freq=noraman hf/6-311g geom=connectivity

M0001

0 1
 C                 -0.18831011   -0.11175049   -0.73631405
 H                 -0.48560522   -0.33355190   -1.79730121
 C                  0.01747555    1.38055761   -0.65696604
 C                 -0.54251379    2.18217896   -1.65649963
 C                  0.73756624    1.98976461    0.37209019
 C                 -0.38343273    3.56240034   -1.62539687
 H                 -1.11321647    1.72202278   -2.47181513
 C                  0.89903299    3.37036800    0.39964683
 H                  1.18639677    1.36697088    1.16271227
 C                  0.33858470    4.15993146   -0.59796505
 H                 -0.82779102    4.17974275   -2.41295105
 H                  1.47035746    3.83458705    1.21006168
 H                  0.46523237    5.24698658   -0.57540332
 C                 -1.32003069   -0.59889164    0.13645926
 C                 -2.07264229   -1.69323850   -0.30210163
 C                 -1.63582965   -0.00625694    1.35871513
 C                 -3.11902500   -2.18258278    0.46952839
 H                 -1.83475791   -2.17232029   -1.25916276
 C                 -2.68549680   -0.49643002    2.12857177
 H                 -1.05961584    0.85840323    1.71233513
 C                 -3.42843472   -1.58470308    1.68706089
 H                 -3.70107637   -3.04066824    0.11755075
 H                 -2.92589546   -0.02048234    3.08487079
 H                 -4.25412877   -1.96978288    2.29378678
 C                  1.06699459   -0.90089977   -0.45568395
 C                  1.67310220   -1.60492919   -1.49916798
 C                  1.62784891   -0.96464171    0.82075936
 C                  2.81535685   -2.36234556   -1.26532376
 H                  1.24754050   -1.56264412   -2.50892909
 C                  2.76689871   -1.72570935    1.05418585
 H                  1.16605556   -0.38561829    1.63484014
 C                  3.36225629   -2.42737414    0.01150299
 H                  3.28360092   -2.90997914   -2.08956125
 H                  3.19440048   -1.77148058    2.06090408
 H                  4.25910182   -3.02763318    0.19496028

 1 2 1.0 3 1.0 14 1.0 25 1.0
 2
 3 4 1.5 5 1.5
 4 6 1.5 7 1.0
 5 8 1.5 9 1.0
 6 10 1.5 11 1.0
 7
 8 10 1.5 12 1.0
 9
 10 13 1.0
 11
 12
 13
 14 15 1.5 16 1.5
 15 17 1.5 18 1.0
 16 19 1.5 20 1.0
 17 21 1.5 22 1.0
 18
 19 21 1.5 23 1.0
 20
 21 24 1.0
 22
 23
 24
 25 26 1.5 27 1.5
 26 28 1.5 29 1.0
 27 30 1.5 31 1.0
 28 32 1.5 33 1.0
 29
 30 32 1.5 34 1.0
 31
 32 35 1.0
 33
 34
 35

