%nprocshared=12
# opt freq=noraman hf/6-311g geom=connectivity

M0001

0 1
 C                 -0.14160508    0.74744641    0.14538843
 H                 -0.32170458    1.84333185    0.31256569
 C                 -0.28654832    0.47345478   -1.33239597
 C                 -0.73402832    1.49078481   -2.17802678
 C                  0.02234234   -0.77622942   -1.87325074
 C                 -0.86523348    1.26043237   -3.54303732
 H                 -0.98450252    2.47582021   -1.76694935
 C                 -0.10714209   -1.00320280   -3.23776624
 H                  0.35223816   -1.58305290   -1.20109614
 C                 -0.54993698    0.01535614   -4.07543048
 H                 -1.21764103    2.06305767   -4.19909979
 H                  0.13896882   -1.98610276   -3.65238264
 H                 -0.65147355   -0.16352286   -5.15057784
 C                  1.27413398    0.51400500    0.61219987
 C                  2.31951395    1.10273829   -0.10801524
 C                  1.57292000   -0.21654970    1.76175515
 C                  3.63497123    0.95629049    0.31161968
 H                  2.09270282    1.67879620   -1.01324113
 C                  2.89167929   -0.36065239    2.18148013
 H                  0.76440770   -0.68156447    2.34028141
 C                  3.92466228    0.22345271    1.45881420
 H                  4.44473794    1.41940097   -0.26159909
 H                  3.11283230   -0.93659822    3.08603450
 H                  4.96163616    0.10888409    1.78994517
 C                 -1.18556659   -0.00703964    0.93012914
 C                 -2.11100605    0.70879202    1.69325067
 C                 -1.25692694   -1.40174920    0.90809091
 C                 -3.08851999    0.03950430    2.42124870
 H                 -2.06903388    1.80414834    1.72013298
 C                 -2.23457529   -2.06836850    1.63609429
 H                 -0.53607407   -1.96489413    0.29445401
 C                 -3.15188135   -1.34898991    2.39500844
 H                 -3.80984002    0.60922060    3.01607187
 H                 -2.28244080   -3.16177511    1.60984710
 H                 -3.92206597   -1.87462591    2.96845634

 1 2 1.0 3 1.0 14 1.0 25 1.0
 2
 3 4 1.5 5 1.5
 4 6 1.5 7 1.0
 5 8 1.5 9 1.0
 6 10 1.5 11 1.0
 7
 8 10 1.5 12 1.0
 9
 10 13 1.0
 11
 12
 13
 14 15 1.5 16 1.5
 15 17 1.5 18 1.0
 16 19 1.5 20 1.0
 17 21 1.5 22 1.0
 18
 19 21 1.5 23 1.0
 20
 21 24 1.0
 22
 23
 24
 25 26 1.5 27 1.5
 26 28 1.5 29 1.0
 27 30 1.5 31 1.0
 28 32 1.5 33 1.0
 29
 30 32 1.5 34 1.0
 31
 32 35 1.0
 33
 34
 35

