%nprocshared=12
# opt freq=noraman hf/6-311g geom=connectivity

M0001

0 1
 C                  0.00000000    0.00000000   -0.77443254
 H                  0.00000000    0.00000000   -1.89906734
 C                 -0.68186309    1.27435142   -0.34065357
 C                 -0.85621307    1.60500767    1.00402916
 C                 -1.15344469    2.15253276   -1.31991173
 C                 -1.48771490    2.78857751    1.36549681
 H                 -0.48345628    0.90902555    1.77651655
 C                 -1.78521157    3.33675143   -0.95761169
 H                 -1.02620486    1.90881621   -2.38147966
 C                 -1.95359731    3.65751476    0.38486627
 H                 -1.61745355    3.03548791    2.42407583
 H                 -2.15059708    4.01800840   -1.73285827
 H                 -2.45096904    4.59038096    0.66869689
 C                 -0.76268915   -1.22768645   -0.34065357
 C                 -0.96187088   -1.54400612    1.00402916
 C                 -1.28742570   -2.07517874   -1.31991173
 C                 -1.67112154   -2.68268761    1.36549681
 H                 -0.54551105   -0.87319818    1.77651655
 C                 -1.99710573   -3.21441428   -0.95761169
 H                 -1.13998094   -1.84312759   -2.38147966
 C                 -2.19070205   -3.52062227    0.38486627
 H                 -1.82008292   -2.91849979    2.42407583
 H                 -2.40439880   -3.87147589   -1.73285827
 H                 -2.74990201   -4.41779192    0.66869689
 C                  1.44455223   -0.04666497   -0.34065357
 C                  2.44087038   -0.07735397   -1.31991173
 C                  1.81808396   -0.06100154    1.00402916
 C                  3.78231725   -0.12233715   -0.95761169
 H                  2.16618580   -0.06568862   -2.38147966
 C                  3.15883638   -0.10588985    1.36549681
 H                  1.02896733   -0.03582736    1.77651655
 C                  4.14429930   -0.13689249    0.38486627
 H                  4.55499588   -0.14653251   -1.73285827
 H                  3.43753641   -0.11698812    2.42407583
 H                  5.20087106   -0.17258904    0.66869689

 1 2 1.0 3 1.0 14 1.0 25 1.0
 2
 3 4 1.5 5 1.5
 4 6 1.5 7 1.0
 5 8 1.5 9 1.0
 6 10 1.5 11 1.0
 7
 8 10 1.5 12 1.0
 9
 10 13 1.0
 11
 12
 13
 14 15 1.5 16 1.5
 15 17 1.5 18 1.0
 16 19 1.5 20 1.0
 17 21 1.5 22 1.0
 18
 19 21 1.5 23 1.0
 20
 21 24 1.0
 22
 23
 24
 25 26 1.5 27 1.5
 26 28 1.5 29 1.0
 27 30 1.5 31 1.0
 28 32 1.5 33 1.0
 29
 30 32 1.5 34 1.0
 31
 32 35 1.0
 33
 34
 35

