%nprocshared=12
# opt freq=noraman hf/6-311g geom=connectivity

M0001

0 1
 C                 -0.09002178   -0.10984640    0.76284838
 H                 -0.26821693   -0.25484240    1.86214590
 C                  1.38346295    0.15017791    0.57318887
 C                  1.92986111    0.39520597   -0.68877854
 C                  2.22260366    0.15497014    1.68969031
 C                  3.29011764    0.63933989   -0.83194834
 H                  1.26470785    0.40620752   -1.56676964
 C                  3.58374962    0.39955967    1.54405645
 H                  1.80907101   -0.03440330    2.68737708
 C                  4.12002584    0.64115930    0.28435996
 H                  3.70716942    0.83208937   -1.82567707
 H                  4.23352753    0.40201315    2.42524278
 H                  5.19164527    0.83378787    0.17134394
 C                 -0.58218705   -1.38389312    0.12181211
 C                 -1.95334177   -1.66068754    0.15222143
 C                  0.28322323   -2.31812328   -0.44603699
 C                 -2.44577887   -2.84439550   -0.38084209
 H                 -2.64055457   -0.93095026    0.59703010
 C                 -0.21212874   -3.50435166   -0.97822759
 H                  1.36190120   -2.11806067   -0.47466189
 C                 -1.57544026   -3.77025825   -0.94799135
 H                 -3.52100407   -3.04864458   -0.35360862
 H                  0.47806725   -4.22968888   -1.42122166
 H                 -1.96372253   -4.70375137   -1.36742290
 C                 -0.89980649    1.08296860    0.31419328
 C                 -0.99883624    1.42716040   -1.03545229
 C                 -1.56670846    1.85700230    1.26600482
 C                 -1.75747628    2.52299827   -1.42789411
 H                 -0.45297271    0.82915804   -1.78102922
 C                 -2.32298589    2.95510616    0.87105163
 H                 -1.49505554    1.60106831    2.32967691
 C                 -2.42186128    3.28846586   -0.47515672
 H                 -1.83004341    2.78382138   -2.48870769
 H                 -2.84158081    3.55776226    1.62367122
 H                 -3.01940997    4.15187495   -0.78448850

 1 2 1.0 3 1.0 14 1.0 25 1.0
 2
 3 4 1.5 5 1.5
 4 6 1.5 7 1.0
 5 8 1.5 9 1.0
 6 10 1.5 11 1.0
 7
 8 10 1.5 12 1.0
 9
 10 13 1.0
 11
 12
 13
 14 15 1.5 16 1.5
 15 17 1.5 18 1.0
 16 19 1.5 20 1.0
 17 21 1.5 22 1.0
 18
 19 21 1.5 23 1.0
 20
 21 24 1.0
 22
 23
 24
 25 26 1.5 27 1.5
 26 28 1.5 29 1.0
 27 30 1.5 31 1.0
 28 32 1.5 33 1.0
 29
 30 32 1.5 34 1.0
 31
 32 35 1.0
 33
 34
 35

