%nprocshared=12
# opt freq=noraman hf/6-311g geom=connectivity

M0001

0 1
 C                 -0.09054381   -0.10511482    0.75623445
 H                 -0.28753708   -0.24843215    1.85348247
 C                  1.40052194    0.07267392    0.61291854
 C                  2.14059325    0.41605969    1.74848122
 C                  2.06649320   -0.08763419   -0.60331948
 C                  3.51663185    0.59296861    1.66672931
 H                  1.63475092    0.54931091    2.71209553
 C                  3.44341806    0.08718322   -0.68291218
 H                  1.49342752   -0.36262448   -1.50349189
 C                  4.17161787    0.42825246    0.45099904
 H                  4.08550708    0.86171308    2.56280923
 H                  3.95344714   -0.04559778   -1.64250437
 H                  5.25570393    0.56601656    0.38769287
 C                 -0.61314037   -1.33196030    0.04957401
 C                 -1.08848828   -2.40262415    0.81073939
 C                 -0.65486875   -1.41846687   -1.34298730
 C                 -1.60154246   -3.53447819    0.18726810
 H                 -1.05876969   -2.35298489    1.90561823
 C                 -1.17188191   -2.54853118   -1.96484026
 H                 -0.25232976   -0.58644449   -1.94062061
 C                 -1.64830119   -3.60821740   -1.20050479
 H                 -1.97011102   -4.36927298    0.79193799
 H                 -1.20245666   -2.60291753   -3.05784004
 H                 -2.05706342   -4.49804858   -1.68972032
 C                 -0.87519281    1.11466737    0.33611746
 C                 -2.07224091    1.39536362    1.00285386
 C                 -0.45761418    1.96121301   -0.69028997
 C                 -2.83438939    2.50066191    0.64618876
 H                 -2.41547268    0.73794873    1.81018355
 C                 -1.22111820    3.06889212   -1.04392976
 H                  0.48353344    1.75905789   -1.21723007
 C                 -2.41033247    3.34069147   -0.37829003
 H                 -3.77053586    2.71050339    1.17370815
 H                 -0.88112002    3.72789126   -1.84932245
 H                 -3.01059552    4.21228080   -0.65782876

 1 2 1.0 3 1.0 14 1.0 25 1.0
 2
 3 4 1.5 5 1.5
 4 6 1.5 7 1.0
 5 8 1.5 9 1.0
 6 10 1.5 11 1.0
 7
 8 10 1.5 12 1.0
 9
 10 13 1.0
 11
 12
 13
 14 15 1.5 16 1.5
 15 17 1.5 18 1.0
 16 19 1.5 20 1.0
 17 21 1.5 22 1.0
 18
 19 21 1.5 23 1.0
 20
 21 24 1.0
 22
 23
 24
 25 26 1.5 27 1.5
 26 28 1.5 29 1.0
 27 30 1.5 31 1.0
 28 32 1.5 33 1.0
 29
 30 32 1.5 34 1.0
 31
 32 35 1.0
 33
 34
 35

