%nprocshared=12
# opt freq=noraman hf/6-311g geom=connectivity

M0001

0 1
 C                 -0.10210189    0.74692252   -0.18586218
 H                 -0.29719806    1.82025988   -0.45249677
 C                 -0.19539277    0.00259916   -1.49488795
 C                  0.92470576   -0.53117738   -2.13151331
 C                 -1.44346065   -0.10175147   -2.11822869
 C                  0.79970282   -1.16183601   -3.36529742
 H                  1.91142548   -0.45473656   -1.65727387
 C                 -1.56623988   -0.73295896   -3.34885832
 H                 -2.32914017    0.31536207   -1.62401402
 C                 -0.44370560   -1.26495149   -3.97621250
 H                  1.68694912   -1.57660582   -3.85460513
 H                 -2.54862045   -0.81080628   -3.82574037
 H                 -0.54069045   -1.76163694   -4.94675120
 C                  1.25526829    0.68126014    0.46803204
 C                  1.99414509    1.85646571    0.62246897
 C                  1.78919765   -0.52320839    0.93190527
 C                  3.24512132    1.82490082    1.22958128
 H                  1.58846236    2.81035570    0.26490433
 C                  3.03924364   -0.55242168    1.53811236
 H                  1.19886630   -1.44691893    0.82350823
 C                  3.77012585    0.62177237    1.68739506
 H                  3.81654173    2.75150558    1.34685056
 H                  3.44693587   -1.50200131    1.89974950
 H                  4.75466309    0.59852614    2.16528879
 C                 -1.17501765    0.30535131    0.78037187
 C                 -1.28389466   -1.02678701    1.18507700
 C                 -2.07886065    1.24589417    1.27891558
 C                 -2.28397552   -1.41388303    2.06816783
 H                 -0.55531003   -1.76093763    0.80914043
 C                 -3.07750385    0.85645369    2.16449905
 H                 -2.00250709    2.29655412    0.97368005
 C                 -3.18351329   -0.47296100    2.55848939
 H                 -2.36142490   -2.46084032    2.37920382
 H                 -3.78144141    1.60037562    2.55196586
 H                 -3.97135545   -0.77813895    3.25443447

 1 2 1.0 3 1.0 14 1.0 25 1.0
 2
 3 4 1.5 5 1.5
 4 6 1.5 7 1.0
 5 8 1.5 9 1.0
 6 10 1.5 11 1.0
 7
 8 10 1.5 12 1.0
 9
 10 13 1.0
 11
 12
 13
 14 15 1.5 16 1.5
 15 17 1.5 18 1.0
 16 19 1.5 20 1.0
 17 21 1.5 22 1.0
 18
 19 21 1.5 23 1.0
 20
 21 24 1.0
 22
 23
 24
 25 26 1.5 27 1.5
 26 28 1.5 29 1.0
 27 30 1.5 31 1.0
 28 32 1.5 33 1.0
 29
 30 32 1.5 34 1.0
 31
 32 35 1.0
 33
 34
 35

