%nprocshared=12
# opt freq=noraman hf/6-311g geom=connectivity

M0001

0 1
 C                  0.00000000    0.00000000    0.79563107
 H                  0.00000000    0.00000000    1.91834045
 C                  0.98025370   -1.05916350    0.35536025
 C                  1.21791779   -2.14945766    1.19681822
 C                  1.65178482   -0.98297992   -0.86572773
 C                  2.11134795   -3.14515778    0.82001513
 H                  0.69639573   -2.22359783    2.15813664
 C                  2.54710489   -1.97935448   -1.23881299
 H                  1.47617052   -0.12454255   -1.52749151
 C                  2.77796010   -3.06212056   -0.39795923
 H                  2.29040317   -3.99639897    1.48490237
 H                  3.07137592   -1.90801990   -2.19731333
 H                  3.48269471   -3.84619503   -0.69258523
 C                 -1.40738939   -0.31934286    0.35536025
 C                 -1.67717797   -0.93899767   -0.86572773
 C                 -2.47044382    0.01998110    1.19681822
 C                 -2.98772369   -1.21618029   -1.23881299
 H                 -0.84594227   -1.21612991   -1.52749151
 C                 -3.77946054   -0.25590207    0.82001513
 H                 -2.27389009    0.50870253    2.15813664
 C                 -4.04085425   -0.87472375   -0.39795923
 H                 -3.18808168   -1.70587959   -2.19731333
 H                 -4.60618463    0.01465212    1.48490237
 H                 -5.07224992   -1.09300460   -0.69258523
 C                  0.42713568    1.37850636    0.35536025
 C                  1.25252604    2.12947656    1.19681822
 C                  0.02539315    1.92197759   -0.86572773
 C                  1.66811253    3.40105986    0.82001513
 H                  1.57749431    1.71489529    2.15813664
 C                  0.44061885    3.19553477   -1.23881299
 H                 -0.63022825    1.34067246   -1.52749151
 C                  1.26289415    3.93684431   -0.39795923
 H                  2.31578146    3.98174685    1.48490237
 H                  0.11670576    3.61389950   -2.19731333
 H                  1.58955527    4.93919957   -0.69258523

 1 2 1.0 3 1.0 14 1.0 25 1.0
 2
 3 4 1.5 5 1.5
 4 6 1.5 7 1.0
 5 8 1.5 9 1.0
 6 10 1.5 11 1.0
 7
 8 10 1.5 12 1.0
 9
 10 13 1.0
 11
 12
 13
 14 15 1.5 16 1.5
 15 17 1.5 18 1.0
 16 19 1.5 20 1.0
 17 21 1.5 22 1.0
 18
 19 21 1.5 23 1.0
 20
 21 24 1.0
 22
 23
 24
 25 26 1.5 27 1.5
 26 28 1.5 29 1.0
 27 30 1.5 31 1.0
 28 32 1.5 33 1.0
 29
 30 32 1.5 34 1.0
 31
 32 35 1.0
 33
 34
 35

