%nprocshared=12
# opt freq=noraman hf/6-311g geom=connectivity

M0001

0 1
 C                 -0.01929931   -0.00086632   -0.77570452
 H                 -0.01110807    0.03342453   -1.89820192
 C                  0.17639478    1.40703235   -0.26638095
 C                  0.17974357    2.47017447   -1.17167368
 C                  0.35844091    1.66857545    1.09311642
 C                  0.36702729    3.77277327   -0.72210919
 H                  0.03350766    2.28073770   -2.24155599
 C                  0.54814307    2.97059438    1.53952241
 H                  0.33148954    0.83103228    1.80683142
 C                  0.55410007    4.02504424    0.63230601
 H                  0.36719170    4.60094752   -1.43820819
 H                  0.69177177    3.16506744    2.60728546
 H                  0.70385638    5.05077750    0.98404415
 C                 -1.36314811   -0.53614403   -0.34876368
 C                 -1.70369150   -0.67711822    0.99862393
 C                 -2.29510280   -0.89235519   -1.32617491
 C                 -2.95242481   -1.16605969    1.36202699
 H                 -0.97342790   -0.38180541    1.76866192
 C                 -3.54435307   -1.38146933   -0.96015624
 H                 -2.04367597   -0.78677237   -2.38820127
 C                 -3.87506482   -1.52000212    0.38310983
 H                 -3.20929449   -1.27051721    2.42115350
 H                 -4.26868189   -1.65729694   -1.73347698
 H                 -4.85893503   -1.90488813    0.66962354
 C                  1.14557630   -0.88698616   -0.40901126
 C                  2.44135527   -0.42984803   -0.67294852
 C                  0.97530336   -2.16233815    0.12820986
 C                  3.54137073   -1.23118120   -0.39825832
 H                  2.58359229    0.57221550   -1.09508855
 C                  2.07889685   -2.96424706    0.40131718
 H                 -0.03451992   -2.53739205    0.33789682
 C                  3.36270006   -2.50185679    0.14002459
 H                  4.55059503   -0.86158126   -0.60665070
 H                  1.93169836   -3.96378287    0.82316543
 H                  4.22997247   -3.13388837    0.35564537

 1 2 1.0 3 1.0 14 1.0 25 1.0
 2
 3 4 1.5 5 1.5
 4 6 1.5 7 1.0
 5 8 1.5 9 1.0
 6 10 1.5 11 1.0
 7
 8 10 1.5 12 1.0
 9
 10 13 1.0
 11
 12
 13
 14 15 1.5 16 1.5
 15 17 1.5 18 1.0
 16 19 1.5 20 1.0
 17 21 1.5 22 1.0
 18
 19 21 1.5 23 1.0
 20
 21 24 1.0
 22
 23
 24
 25 26 1.5 27 1.5
 26 28 1.5 29 1.0
 27 30 1.5 31 1.0
 28 32 1.5 33 1.0
 29
 30 32 1.5 34 1.0
 31
 32 35 1.0
 33
 34
 35

