%nprocshared=12
# opt freq=noraman hf/6-311g geom=connectivity

M0001

0 1
 C                 -0.23071816   -0.25857008    0.68715137
 H                 -0.63085458   -0.62891414    1.66998508
 C                 -0.49738084    1.22588693    0.63191971
 C                 -1.02230657    1.86375036    1.75839228
 C                 -0.25473804    1.97526796   -0.52052504
 C                 -1.30550678    3.22460120    1.72687470
 H                 -1.21372316    1.29105940    2.67358502
 C                 -0.54148242    3.33461959   -0.55177460
 H                  0.18720788    1.47666245   -1.39656094
 C                 -1.06980028    3.96157212    0.57162806
 H                 -1.71701777    3.71576998    2.61483206
 H                 -0.35008181    3.91080016   -1.46259834
 H                 -1.29776699    5.03192836    0.54718150
 C                  1.23906297   -0.59779074    0.67237124
 C                  1.70707802   -1.56395579    1.56826276
 C                  2.14497135    0.00982428   -0.19867325
 C                  3.05247704   -1.91169070    1.59106781
 H                  1.01024504   -2.05382850    2.25874985
 C                  3.49101353   -0.33699071   -0.17251411
 H                  1.78720218    0.77570098   -0.90563495
 C                  3.94797111   -1.29850646    0.72143999
 H                  3.40717514   -2.66998085    2.29667196
 H                  4.19126918    0.15056733   -0.85849314
 H                  5.00785815   -1.57138105    0.74149999
 C                 -1.01432976   -0.97071650   -0.38945609
 C                 -0.46928528   -1.28553251   -1.63369971
 C                 -2.34280130   -1.31790319   -0.12277145
 C                 -1.23643016   -1.93665485   -2.59414086
 H                  0.57393543   -1.02670329   -1.85521950
 C                 -3.10787042   -1.96573621   -1.08436377
 H                 -2.78679117   -1.07429067    0.84957682
 C                 -2.55611593   -2.27725402   -2.32285888
 H                 -0.79621729   -2.18121422   -3.56633546
 H                 -4.14726598   -2.23137340   -0.86587225
 H                 -3.15898227   -2.78902324   -3.07969792

 1 2 1.0 3 1.0 14 1.0 25 1.0
 2
 3 4 1.5 5 1.5
 4 6 1.5 7 1.0
 5 8 1.5 9 1.0
 6 10 1.5 11 1.0
 7
 8 10 1.5 12 1.0
 9
 10 13 1.0
 11
 12
 13
 14 15 1.5 16 1.5
 15 17 1.5 18 1.0
 16 19 1.5 20 1.0
 17 21 1.5 22 1.0
 18
 19 21 1.5 23 1.0
 20
 21 24 1.0
 22
 23
 24
 25 26 1.5 27 1.5
 26 28 1.5 29 1.0
 27 30 1.5 31 1.0
 28 32 1.5 33 1.0
 29
 30 32 1.5 34 1.0
 31
 32 35 1.0
 33
 34
 35

