%nprocshared=12
# opt freq=noraman hf/6-311g geom=connectivity

M0001

0 1
 C                  0.00921927    0.12040153   -0.75902909
 H                 -0.00197875    0.23699642   -1.87686877
 C                 -1.42278294    0.21073055   -0.29132848
 C                 -1.78185373   -0.03491496    1.03491777
 C                 -2.41992047    0.52852303   -1.21667893
 C                 -3.11318389    0.02529721    1.42845752
 H                 -0.99162895   -0.25597505    1.76843718
 C                 -3.75116485    0.59200731   -0.82088145
 H                 -2.15445912    0.72860315   -2.26149126
 C                 -4.10094170    0.33707665    0.50051616
 H                 -3.38252907   -0.17262746    2.47093659
 H                 -4.52552129    0.84219401   -1.55328805
 H                 -5.15001183    0.38323143    0.80965373
 C                  0.56655209   -1.25437683   -0.47733958
 C                  1.29105009   -1.55040044    0.67682855
 C                  0.33583276   -2.26825679   -1.41278297
 C                  1.77750918   -2.83553930    0.89267545
 H                  1.48752116   -0.76352080    1.41619574
 C                  0.82058241   -3.55159491   -1.19403909
 H                 -0.23456094   -2.05233162   -2.32379849
 C                  1.54325485   -3.83837876   -0.04038474
 H                  2.34745197   -3.05483871    1.80141561
 H                  0.63297727   -4.33825150   -1.93207577
 H                  1.92616063   -4.84943169    0.13070921
 C                  0.87922292    1.23133249   -0.22566002
 C                  1.75738817    1.86882925   -1.10747532
 C                  0.84463314    1.64341350    1.10750321
 C                  2.58051465    2.89659079   -0.66304925
 H                  1.80046585    1.55750443   -2.15798773
 C                  1.66659781    2.67370255    1.54981490
 H                  0.15305827    1.15081473    1.80990007
 C                  2.53658167    3.30227098    0.66642805
 H                  3.26424875    3.38802389   -1.36280271
 H                  1.62607839    2.98957581    2.59729666
 H                  3.18363606    4.11331915    1.01527513

 1 2 1.0 3 1.0 14 1.0 25 1.0
 2
 3 4 1.5 5 1.5
 4 6 1.5 7 1.0
 5 8 1.5 9 1.0
 6 10 1.5 11 1.0
 7
 8 10 1.5 12 1.0
 9
 10 13 1.0
 11
 12
 13
 14 15 1.5 16 1.5
 15 17 1.5 18 1.0
 16 19 1.5 20 1.0
 17 21 1.5 22 1.0
 18
 19 21 1.5 23 1.0
 20
 21 24 1.0
 22
 23
 24
 25 26 1.5 27 1.5
 26 28 1.5 29 1.0
 27 30 1.5 31 1.0
 28 32 1.5 33 1.0
 29
 30 32 1.5 34 1.0
 31
 32 35 1.0
 33
 34
 35

