%nprocshared=12
# opt freq=noraman hf/6-311g geom=connectivity

M0001

0 1
 C                 -0.03221658   -0.00720739   -0.77519202
 H                 -0.08899132   -0.06994199   -1.89506337
 C                 -1.46676926    0.10522070   -0.32173844
 C                 -2.31875993   -0.98471213   -0.53181488
 C                 -1.98522702    1.26823122    0.24609610
 C                 -3.65822561   -0.91203493   -0.17378726
 H                 -1.91866949   -1.90295420   -0.97819340
 C                 -3.32824787    1.33962739    0.60262594
 H                 -1.33183489    2.13373506    0.41390699
 C                 -4.16688872    0.25172856    0.39508834
 H                 -4.31438327   -1.77229467   -0.34043036
 H                 -3.72286969    2.25863179    1.04785605
 H                 -5.22299485    0.30914651    0.67689829
 C                  0.60581296   -1.27929081   -0.27068617
 C                  0.67982660   -1.56241451    1.09457012
 C                  1.12945354   -2.19453509   -1.18634570
 C                  1.26157973   -2.74394581    1.53723636
 H                  0.28662679   -0.82856589    1.81453365
 C                  1.71352388   -3.37523617   -0.74066818
 H                  1.08183589   -1.98414576   -2.26092964
 C                  1.77820844   -3.65331050    0.62012155
 H                  1.31400987   -2.95711052    2.60972730
 H                  2.12369879   -4.08663893   -1.46471256
 H                  2.23614462   -4.58436527    0.96897794
 C                  0.82302350    1.18683937   -0.43226595
 C                  1.34127123    1.97090595   -1.46546103
 C                  1.11834251    1.52441567    0.89056239
 C                  2.13884284    3.07332975   -1.17833591
 H                  1.12049753    1.71816730   -2.50932475
 C                  1.91591549    2.62598786    1.17517837
 H                  0.72185741    0.89653289    1.70432651
 C                  2.42694789    3.40342136    0.14107278
 H                  2.54047001    3.68195513   -1.99503760
 H                  2.14290126    2.87961039    2.21569583
 H                  3.05528772    4.27121755    0.36551267

 1 2 1.0 3 1.0 14 1.0 25 1.0
 2
 3 4 1.5 5 1.5
 4 6 1.5 7 1.0
 5 8 1.5 9 1.0
 6 10 1.5 11 1.0
 7
 8 10 1.5 12 1.0
 9
 10 13 1.0
 11
 12
 13
 14 15 1.5 16 1.5
 15 17 1.5 18 1.0
 16 19 1.5 20 1.0
 17 21 1.5 22 1.0
 18
 19 21 1.5 23 1.0
 20
 21 24 1.0
 22
 23
 24
 25 26 1.5 27 1.5
 26 28 1.5 29 1.0
 27 30 1.5 31 1.0
 28 32 1.5 33 1.0
 29
 30 32 1.5 34 1.0
 31
 32 35 1.0
 33
 34
 35

