%nprocshared=12
# opt freq=noraman hf/6-311g geom=connectivity

M0001

0 1
 C                  0.00500760    0.74941913   -0.19702576
 H                  0.05956049    1.83140107   -0.49304201
 C                 -0.10120383   -0.00078318   -1.50180043
 C                  1.00688799   -0.01993935   -2.35565824
 C                 -1.28038076   -0.62248369   -1.91126868
 C                  0.93596369   -0.65428978   -3.58882729
 H                  1.93799573    0.46698278   -2.04138495
 C                 -1.34978479   -1.25602014   -3.14800613
 H                 -2.15979418   -0.61346275   -1.25493675
 C                 -0.24384345   -1.27455050   -3.98857133
 H                  1.81058943   -0.66490671   -4.24719951
 H                 -2.28156597   -1.74022335   -3.45767320
 H                 -0.29980828   -1.77370636   -4.96110376
 C                  1.27780081    0.40428036    0.53823946
 C                  1.56620416   -0.90908587    0.91444956
 C                  2.18870621    1.41704597    0.84568070
 C                  2.74873332   -1.20626652    1.58076066
 H                  0.83588791   -1.70181313    0.69123175
 C                  3.37039356    1.11747577    1.51487910
 H                  1.97405953    2.45357598    0.56035219
 C                  3.65373003   -0.19350684    1.88098143
 H                  2.96628492   -2.23941007    1.87015071
 H                  4.07882960    1.91751382    1.75313692
 H                  4.58555317   -0.42782118    2.40549473
 C                 -1.18993246    0.58702516    0.70888780
 C                 -1.52863861   -0.64939044    1.26382746
 C                 -1.97422993    1.70377553    1.00724344
 C                 -2.63192512   -0.76747233    2.09999647
 H                 -0.90043880   -1.52613089    1.04072596
 C                 -3.07792989    1.58335458    1.84449964
 H                 -1.72097882    2.68159184    0.58083373
 C                 -3.40945943    0.34882983    2.39130246
 H                 -2.88711894   -1.74104792    2.53064964
 H                 -3.68644922    2.46438792    2.07303330
 H                 -4.27870556    0.25565114    3.05014088

 1 2 1.0 3 1.0 14 1.0 25 1.0
 2
 3 4 1.5 5 1.5
 4 6 1.5 7 1.0
 5 8 1.5 9 1.0
 6 10 1.5 11 1.0
 7
 8 10 1.5 12 1.0
 9
 10 13 1.0
 11
 12
 13
 14 15 1.5 16 1.5
 15 17 1.5 18 1.0
 16 19 1.5 20 1.0
 17 21 1.5 22 1.0
 18
 19 21 1.5 23 1.0
 20
 21 24 1.0
 22
 23
 24
 25 26 1.5 27 1.5
 26 28 1.5 29 1.0
 27 30 1.5 31 1.0
 28 32 1.5 33 1.0
 29
 30 32 1.5 34 1.0
 31
 32 35 1.0
 33
 34
 35

