%nprocshared=12
# opt freq=noraman hf/6-311g geom=connectivity

M0001

0 1
 C                 -0.08485495    0.75072387    0.18717788
 H                 -0.23748766    1.83342512    0.44299634
 C                  1.39321802    0.53346036   -0.02231017
 C                  2.26388218    1.62118530    0.07386817
 C                  1.91162916   -0.72896611   -0.32019621
 C                  3.62939042    1.44638906   -0.12347774
 H                  1.87229361    2.61887561    0.30508989
 C                  3.27622721   -0.90113678   -0.51630353
 H                  1.22100067   -1.58210461   -0.41267729
 C                  4.13793034    0.18646349   -0.41773194
 H                  4.30457762    2.30467699   -0.04680848
 H                  3.67180742   -1.89475766   -0.75039578
 H                  5.21300446    0.05075953   -0.57310833
 C                 -0.65283999   -0.00302351    1.36401241
 C                  0.16726240   -0.53996696    2.35689064
 C                 -2.04050176   -0.10725110    1.50202199
 C                 -0.38859607   -1.17423019    3.46279807
 H                  1.25788358   -0.46342555    2.26406502
 C                 -2.59355363   -0.74199683    2.60671787
 H                 -2.69329523    0.31298813    0.72730169
 C                 -1.76859916   -1.27750929    3.59055887
 H                  0.26596062   -1.59206479    4.23455609
 H                 -3.68143215   -0.81936175    2.70223981
 H                 -2.20493062   -1.77696810    4.46137670
 C                 -0.83981922    0.46225316   -1.08813040
 C                 -1.45231923    1.51191544   -1.77589138
 C                 -0.93754423   -0.83486061   -1.59613458
 C                 -2.15393662    1.26479279   -2.95091348
 H                 -1.38081331    2.53602704   -1.39119386
 C                 -1.64099225   -1.07956297   -2.76902759
 H                 -0.43494830   -1.65678332   -1.06326669
 C                 -2.25149526   -0.03005848   -3.44803201
 H                 -2.63016185    2.09342192   -3.48493805
 H                 -1.71237667   -2.10024761   -3.15893412
 H                 -2.80556977   -0.22308176   -4.37219981

 1 2 1.0 3 1.0 14 1.0 25 1.0
 2
 3 4 1.5 5 1.5
 4 6 1.5 7 1.0
 5 8 1.5 9 1.0
 6 10 1.5 11 1.0
 7
 8 10 1.5 12 1.0
 9
 10 13 1.0
 11
 12
 13
 14 15 1.5 16 1.5
 15 17 1.5 18 1.0
 16 19 1.5 20 1.0
 17 21 1.5 22 1.0
 18
 19 21 1.5 23 1.0
 20
 21 24 1.0
 22
 23
 24
 25 26 1.5 27 1.5
 26 28 1.5 29 1.0
 27 30 1.5 31 1.0
 28 32 1.5 33 1.0
 29
 30 32 1.5 34 1.0
 31
 32 35 1.0
 33
 34
 35

