%nprocshared=12
# opt freq=noraman hf/6-311g geom=connectivity

M0001

0 1
 C                 -0.19678477   -0.70747987    0.25153763
 H                 -0.51715609   -1.73126867    0.58380501
 C                 -1.44019637    0.09231031   -0.05477524
 C                 -1.36276731    1.36258120   -0.62947412
 C                 -2.69391951   -0.44806337    0.23835921
 C                 -2.51969350    2.07789443   -0.91315027
 H                 -0.37231900    1.79540151   -0.83759307
 C                 -3.85033383    0.27089176   -0.04407359
 H                 -2.77035238   -1.44237409    0.69381043
 C                 -3.76587185    1.53252076   -0.62213083
 H                 -2.44825204    3.07246534   -1.36508357
 H                 -4.82949134   -0.15946582    0.18986266
 H                 -4.67723720    2.09601017   -0.84598096
 C                  0.56765034   -0.07985952    1.39019541
 C                  1.09147036    1.21184876    1.29912438
 C                  0.74945982   -0.80547815    2.56963366
 C                  1.78557993    1.76720642    2.36688632
 H                  0.93370098    1.78885506    0.37427865
 C                  1.44432691   -0.24764082    3.63714567
 H                  0.34320029   -1.82011150    2.65736627
 C                  1.96416662    1.03798689    3.53791002
 H                  2.19042037    2.78110548    2.28501186
 H                  1.58109092   -0.82376641    4.55806829
 H                  2.51097356    1.47583682    4.37906297
 C                  0.62750785   -0.94637467   -0.98939090
 C                  2.01225576   -0.78167026   -1.00849690
 C                 -0.01640121   -1.40662541   -2.14298931
 C                  2.73955157   -1.06675201   -2.15975487
 H                  2.53293294   -0.42434692   -0.11092804
 C                  0.71118898   -1.68934910   -3.29134575
 H                 -1.10511509   -1.53817147   -2.13634105
 C                  2.09248670   -1.52026983   -3.30254007
 H                  3.82621832   -0.93279285   -2.16160572
 H                  0.19588327   -2.04648379   -4.18884206
 H                  2.66582591   -1.74457039   -4.20756192

 1 2 1.0 3 1.0 14 1.0 25 1.0
 2
 3 4 1.5 5 1.5
 4 6 1.5 7 1.0
 5 8 1.5 9 1.0
 6 10 1.5 11 1.0
 7
 8 10 1.5 12 1.0
 9
 10 13 1.0
 11
 12
 13
 14 15 1.5 16 1.5
 15 17 1.5 18 1.0
 16 19 1.5 20 1.0
 17 21 1.5 22 1.0
 18
 19 21 1.5 23 1.0
 20
 21 24 1.0
 22
 23
 24
 25 26 1.5 27 1.5
 26 28 1.5 29 1.0
 27 30 1.5 31 1.0
 28 32 1.5 33 1.0
 29
 30 32 1.5 34 1.0
 31
 32 35 1.0
 33
 34
 35

