%nprocshared=12
# opt freq=noraman hf/6-311g geom=connectivity

M0001

0 1
 C                 -0.04782402   -0.75426142   -0.13847066
 H                 -0.12680923   -1.84376339   -0.40316824
 C                 -0.17986904   -0.67191487    1.36198513
 C                  0.22630720    0.44400882    2.09545745
 C                 -0.73630506   -1.76052831    2.04054271
 C                  0.08377860    0.47056558    3.47816913
 H                  0.67040370    1.30553049    1.57121875
 C                 -0.88065344   -1.73130555    3.42250789
 H                 -1.06339909   -2.64523816    1.48138599
 C                 -0.47017229   -0.61612292    4.14493453
 H                  0.41023053    1.35087379    4.04128569
 H                 -1.31809755   -2.58962719    3.94270891
 H                 -0.58209513   -0.59470029    5.23360422
 C                  1.29019726   -0.27311446   -0.64420192
 C                  2.18354128   -1.20009695   -1.18674041
 C                  1.65215254    1.07434010   -0.60450806
 C                  3.41259269   -0.78280571   -1.68504996
 H                  1.91649161   -2.26295390   -1.22202886
 C                  2.87932639    1.49067596   -1.10635744
 H                  0.95931358    1.79886027   -0.15005207
 C                  3.76144316    0.56277778   -1.64944268
 H                  4.10629321   -1.51685822   -2.10775050
 H                  3.15027805    2.55084569   -1.07254216
 H                  4.72772241    0.89032575   -2.04600885
 C                 -1.16759393   -0.05353199   -0.86995851
 C                 -1.59205632   -0.58007410   -2.09417779
 C                 -1.78472356    1.09580093   -0.37713764
 C                 -2.61278303    0.03412564   -2.80880156
 H                 -1.11495657   -1.48127904   -2.49674748
 C                 -2.80810368    1.70788205   -1.09327623
 H                 -1.46869431    1.51625332    0.58612963
 C                 -3.22385559    1.17993366   -2.30962088
 H                 -2.93637810   -0.38544244   -3.76690819
 H                 -3.28665406    2.60823946   -0.69445735
 H                 -4.02904820    1.66257966   -2.87252233

 1 2 1.0 3 1.0 14 1.0 25 1.0
 2
 3 4 1.5 5 1.5
 4 6 1.5 7 1.0
 5 8 1.5 9 1.0
 6 10 1.5 11 1.0
 7
 8 10 1.5 12 1.0
 9
 10 13 1.0
 11
 12
 13
 14 15 1.5 16 1.5
 15 17 1.5 18 1.0
 16 19 1.5 20 1.0
 17 21 1.5 22 1.0
 18
 19 21 1.5 23 1.0
 20
 21 24 1.0
 22
 23
 24
 25 26 1.5 27 1.5
 26 28 1.5 29 1.0
 27 30 1.5 31 1.0
 28 32 1.5 33 1.0
 29
 30 32 1.5 34 1.0
 31
 32 35 1.0
 33
 34
 35

