%nprocshared=12
# opt freq=noraman hf/6-311g geom=connectivity

M0001

0 1
 C                 -0.07454964   -0.05492574   -0.77162002
 H                 -0.18374743   -0.09639943   -1.88849903
 C                 -1.48710719    0.05421130   -0.25309918
 C                 -2.17105492    1.26555311   -0.39836156
 C                 -2.15441129   -1.03577662    0.30616698
 C                 -3.49164384    1.38360298    0.01495725
 H                 -1.65469312    2.12742611   -0.83835075
 C                 -3.47757577   -0.91581680    0.71805347
 H                 -1.63239577   -1.99378086    0.42404725
 C                 -4.14880080    0.29246150    0.57473481
 H                 -4.01548560    2.33788799   -0.10147683
 H                 -3.98992550   -1.77890447    1.15559473
 H                 -5.18979051    0.38564887    0.89986300
 C                  0.64374841   -1.30799487   -0.33634776
 C                  0.91565751   -1.56637857    1.00913673
 C                  1.05491754   -2.22904867   -1.30240200
 C                  1.58417586   -2.72578312    1.38224484
 H                  0.60609015   -0.83055988    1.76795552
 C                  1.72452499   -3.38861287   -0.92663090
 H                  0.85065952   -2.03964772   -2.36287088
 C                  1.98915648   -3.63977283    0.41488158
 H                  1.79313865   -2.91773354    2.43961274
 H                  2.04386897   -4.10459921   -1.69093600
 H                  2.51606906   -4.55306947    0.70907756
 C                  0.74609177    1.16530614   -0.42912206
 C                  1.31571488    1.91994809   -1.45671305
 C                  0.94742249    1.55636622    0.89625179
 C                  2.07065978    3.04975649   -1.16075225
 H                  1.16968466    1.62258228   -2.50182621
 C                  1.70029360    2.68672158    1.18927851
 H                  0.51574482    0.94671350    1.70478996
 C                  2.26225396    3.43631116    0.16100424
 H                  2.51458673    3.63564815   -1.97217032
 H                  1.85156018    2.98562994    2.23154136
 H                  2.85516140    4.32702908    0.39198635

 1 2 1.0 3 1.0 14 1.0 25 1.0
 2
 3 4 1.5 5 1.5
 4 6 1.5 7 1.0
 5 8 1.5 9 1.0
 6 10 1.5 11 1.0
 7
 8 10 1.5 12 1.0
 9
 10 13 1.0
 11
 12
 13
 14 15 1.5 16 1.5
 15 17 1.5 18 1.0
 16 19 1.5 20 1.0
 17 21 1.5 22 1.0
 18
 19 21 1.5 23 1.0
 20
 21 24 1.0
 22
 23
 24
 25 26 1.5 27 1.5
 26 28 1.5 29 1.0
 27 30 1.5 31 1.0
 28 32 1.5 33 1.0
 29
 30 32 1.5 34 1.0
 31
 32 35 1.0
 33
 34
 35

