%nprocshared=12
# opt freq=noraman hf/6-311g geom=connectivity

M0001

0 1
 C                 -0.21829149   -0.71249060    0.23434932
 H                 -0.52880958   -1.73607323    0.57592149
 C                 -1.46965275    0.07071274   -0.07929070
 C                 -1.40657763    1.36368882   -0.60367392
 C                 -2.71803771   -0.50483843    0.16595104
 C                 -2.57161188    2.06726770   -0.88266707
 H                 -0.42040397    1.82211877   -0.77670790
 C                 -3.88287664    0.20205040   -0.11293182
 H                 -2.78356345   -1.51761299    0.58068657
 C                 -3.81220994    1.48706538   -0.63877737
 H                 -2.51126683    3.08027451   -1.29338529
 H                 -4.85766469   -0.25628689    0.08305934
 H                 -4.73007243    2.04161160   -0.85855860
 C                  0.53359382   -0.05353760    1.36514697
 C                  1.13248106    1.19840433    1.20749363
 C                  0.62810085   -0.70396148    2.59714934
 C                  1.81917433    1.78730209    2.26198969
 H                  1.03754545    1.71790208    0.24112416
 C                  1.31389128   -0.11115040    3.65198502
 H                  0.16025757   -1.68542139    2.73701432
 C                  1.91177167    1.13296680    3.48619008
 H                  2.28559031    2.76864637    2.12800566
 H                  1.38173307   -0.62712833    4.61554043
 H                  2.45223208    1.59730978    4.31724316
 C                  0.64545263   -0.96119295   -0.97702122
 C                  0.08410838   -1.01086005   -2.25486866
 C                  2.00968274   -1.22234923   -0.82681733
 C                  0.87333535   -1.30631055   -3.36032231
 H                 -0.98682471   -0.81204090   -2.38616796
 C                  2.79698974   -1.51726516   -1.93336331
 H                  2.46131261   -1.19043650    0.17228768
 C                  2.23139113   -1.55920436   -3.20296738
 H                  0.42148428   -1.34027050   -4.35695405
 H                  3.86544650   -1.71771850   -1.80261192
 H                  2.85228882   -1.79117127   -4.07405124

 1 2 1.0 3 1.0 14 1.0 25 1.0
 2
 3 4 1.5 5 1.5
 4 6 1.5 7 1.0
 5 8 1.5 9 1.0
 6 10 1.5 11 1.0
 7
 8 10 1.5 12 1.0
 9
 10 13 1.0
 11
 12
 13
 14 15 1.5 16 1.5
 15 17 1.5 18 1.0
 16 19 1.5 20 1.0
 17 21 1.5 22 1.0
 18
 19 21 1.5 23 1.0
 20
 21 24 1.0
 22
 23
 24
 25 26 1.5 27 1.5
 26 28 1.5 29 1.0
 27 30 1.5 31 1.0
 28 32 1.5 33 1.0
 29
 30 32 1.5 34 1.0
 31
 32 35 1.0
 33
 34
 35

