%nprocshared=12
# opt freq=noraman hf/6-311g geom=connectivity

M0001

0 1
 C                 -0.08521590    0.02571177    0.77134188
 H                 -0.16655240    0.06547055    1.89069570
 C                  0.13254916   -1.43320202    0.45470037
 C                  1.36195026   -2.01684282    0.77818774
 C                 -0.87235748   -2.23230343   -0.09017958
 C                  1.58081030   -3.36978897    0.55449018
 H                  2.15735510   -1.39562191    1.20692249
 C                 -0.65139534   -3.58760558   -0.31251785
 H                 -1.84332830   -1.78996496   -0.34665370
 C                  0.57373683   -4.15933275    0.00822220
 H                  2.54790765   -3.81483006    0.81003294
 H                 -1.44826727   -4.20384074   -0.74128250
 H                  0.74625010   -5.22587981   -0.16720403
 C                 -1.35999236    0.59636149    0.20167940
 C                 -1.57296556    0.68300066   -1.17607982
 C                 -2.34884207    1.05850246    1.07295000
 C                 -2.75371161    1.22010292   -1.67371138
 H                 -0.78484432    0.33384427   -1.86168361
 C                 -3.52987943    1.59596493    0.57269885
 H                 -2.19587338    0.99958762    2.15713385
 C                 -3.73502806    1.67700784   -0.79994725
 H                 -2.90950986    1.28441870   -2.75549251
 H                 -4.29915932    1.95652281    1.26329246
 H                 -4.66505793    2.10075864   -1.19212432
 C                  1.09755965    0.86945357    0.36045194
 C                  1.53554934    0.90946603   -0.96486089
 C                  1.76884708    1.62555409    1.32352268
 C                  2.62989456    1.68805606   -1.32073285
 H                  0.99110448    0.32917079   -1.72549963
 C                  2.86240303    2.40602454    0.96446268
 H                  1.43405452    1.60680311    2.36742942
 C                  3.29582248    2.43731040   -0.35630711
 H                  2.96635175    1.71166879   -2.36238943
 H                  3.38210843    2.99742314    1.72538194
 H                  4.15772617    3.05102794   -0.63693017

 1 2 1.0 3 1.0 14 1.0 25 1.0
 2
 3 4 1.5 5 1.5
 4 6 1.5 7 1.0
 5 8 1.5 9 1.0
 6 10 1.5 11 1.0
 7
 8 10 1.5 12 1.0
 9
 10 13 1.0
 11
 12
 13
 14 15 1.5 16 1.5
 15 17 1.5 18 1.0
 16 19 1.5 20 1.0
 17 21 1.5 22 1.0
 18
 19 21 1.5 23 1.0
 20
 21 24 1.0
 22
 23
 24
 25 26 1.5 27 1.5
 26 28 1.5 29 1.0
 27 30 1.5 31 1.0
 28 32 1.5 33 1.0
 29
 30 32 1.5 34 1.0
 31
 32 35 1.0
 33
 34
 35

