%nprocshared=12
# opt freq=noraman hf/6-311g geom=connectivity

M0001

0 1
 C                  0.03650270   -0.75951853    0.10976406
 H                  0.03114594   -1.87532220    0.24486984
 C                  1.46810904   -0.31797885    0.28615487
 C                  2.47820522   -1.27790416    0.17036639
 C                  1.82238987    1.00502751    0.55554356
 C                  3.81234245   -0.91974932    0.32262328
 H                  2.21965419   -2.32183228   -0.04331136
 C                  3.15729515    1.36098499    0.71103160
 H                  1.03393085    1.76875860    0.65263504
 C                  4.15524915    0.40024739    0.59449323
 H                  4.59445653   -1.68010612    0.22876740
 H                  3.42064682    2.40161517    0.92654444
 H                  5.20616368    0.68110742    0.71660791
 C                 -0.49759172   -0.49362236   -1.27729523
 C                 -0.10212825    0.60633002   -2.03766505
 C                 -1.43178927   -1.38714052   -1.81100303
 C                 -0.62901797    0.80976941   -3.30887416
 H                  0.63622547    1.31183548   -1.63583716
 C                 -1.95847262   -1.18069245   -3.07981312
 H                 -1.75519383   -2.25499693   -1.22451266
 C                 -1.55779405   -0.08144832   -3.83235694
 H                 -0.30841979    1.67545031   -3.89736758
 H                 -2.69030903   -1.88550775   -3.48757796
 H                 -1.97201707    0.07969600   -4.83268768
 C                 -0.89465727   -0.18448304    1.14888286
 C                 -1.22999684    1.17029385    1.16928026
 C                 -1.45317301   -1.03642502    2.10496295
 C                 -2.11473988    1.66417635    2.12029121
 H                 -0.76603053    1.84505914    0.43380601
 C                 -2.33504594   -0.54025679    3.05837970
 H                 -1.19742365   -2.10272438    2.10530761
 C                 -2.67038117    0.80924928    3.06594820
 H                 -2.37284110    2.72805472    2.12363048
 H                 -2.76721272   -1.21557814    3.80376380
 H                 -3.36808111    1.19763189    3.81464723

 1 2 1.0 3 1.0 14 1.0 25 1.0
 2
 3 4 1.5 5 1.5
 4 6 1.5 7 1.0
 5 8 1.5 9 1.0
 6 10 1.5 11 1.0
 7
 8 10 1.5 12 1.0
 9
 10 13 1.0
 11
 12
 13
 14 15 1.5 16 1.5
 15 17 1.5 18 1.0
 16 19 1.5 20 1.0
 17 21 1.5 22 1.0
 18
 19 21 1.5 23 1.0
 20
 21 24 1.0
 22
 23
 24
 25 26 1.5 27 1.5
 26 28 1.5 29 1.0
 27 30 1.5 31 1.0
 28 32 1.5 33 1.0
 29
 30 32 1.5 34 1.0
 31
 32 35 1.0
 33
 34
 35

