%nprocshared=12
# opt freq=noraman hf/6-311g geom=connectivity

M0001

0 1
 C                  0.05245168    0.73325244   -0.24209399
 H                  0.07798490    1.80774224   -0.56808326
 C                  1.47188345    0.22400401   -0.25940496
 C                  2.49220460    1.07306282   -0.69461854
 C                  1.79578289   -1.06986257    0.15524118
 C                  3.81155683    0.63416787   -0.71330934
 H                  2.25484347    2.09157292   -1.02414541
 C                  3.11487186   -1.50603438    0.13684804
 H                  0.99267709   -1.73573371    0.50941444
 C                  4.12554585   -0.65489775   -0.29802654
 H                  4.60433817    1.30715015   -1.05592949
 H                  3.35718979   -2.52125437    0.46746592
 H                  5.16478831   -0.99856091   -0.31188643
 C                 -0.51560078    0.68688916    1.15617736
 C                 -0.81695897   -0.52620804    1.77828533
 C                 -0.75150239    1.88097746    1.84063410
 C                 -1.35151377   -0.54538066    3.06065543
 H                 -0.60805016   -1.46638064    1.24567758
 C                 -1.28404008    1.85915885    3.12503518
 H                 -0.51647811    2.84111010    1.36647890
 C                 -1.58711513    0.64760849    3.73597974
 H                 -1.58598539   -1.50179403    3.53902795
 H                 -1.46509802    2.79976146    3.65515643
 H                 -2.00849246    0.63236729    4.74615519
 C                 -0.86533826    0.05150223   -1.22687364
 C                 -2.20746009    0.44619310   -1.26481559
 C                 -0.41922491   -0.91376698   -2.12827311
 C                 -3.08310979   -0.11919067   -2.18181616
 H                 -2.56608192    1.20449706   -0.55854510
 C                 -1.29818318   -1.47801830   -3.04763613
 H                  0.63114674   -1.23149161   -2.11521444
 C                 -2.63005638   -1.08395059   -3.07663822
 H                 -4.13144305    0.19576759   -2.20034271
 H                 -0.93525099   -2.23511325   -3.75042834
 H                 -3.32028153   -1.52914672   -3.80015142

 1 2 1.0 3 1.0 14 1.0 25 1.0
 2
 3 4 1.5 5 1.5
 4 6 1.5 7 1.0
 5 8 1.5 9 1.0
 6 10 1.5 11 1.0
 7
 8 10 1.5 12 1.0
 9
 10 13 1.0
 11
 12
 13
 14 15 1.5 16 1.5
 15 17 1.5 18 1.0
 16 19 1.5 20 1.0
 17 21 1.5 22 1.0
 18
 19 21 1.5 23 1.0
 20
 21 24 1.0
 22
 23
 24
 25 26 1.5 27 1.5
 26 28 1.5 29 1.0
 27 30 1.5 31 1.0
 28 32 1.5 33 1.0
 29
 30 32 1.5 34 1.0
 31
 32 35 1.0
 33
 34
 35

