%nprocshared=12
# opt freq=noraman hf/6-311g geom=connectivity

M0001

0 1
 C                 -0.72974167    0.12247728    0.23558685
 H                 -1.79945046    0.26684128    0.54557116
 C                 -0.70728498   -0.13546731   -1.25186975
 C                  0.47193530   -0.49312499   -1.90881679
 C                 -1.88846532   -0.01759578   -1.98706607
 C                  0.46905250   -0.73589468   -3.27700187
 H                  1.40596802   -0.56245599   -1.33045823
 C                 -1.88829276   -0.25866486   -3.35681053
 H                 -2.82101555    0.26689743   -1.48567396
 C                 -0.71164624   -0.62042577   -4.00325785
 H                  1.39857192   -1.01702644   -3.78252220
 H                 -2.81846904   -0.16306036   -3.92629310
 H                 -0.71392975   -0.81209933   -5.08098775
 C                  0.01279667    1.39419356    0.56154744
 C                 -0.68031440    2.45618763    1.14647770
 C                  1.37425321    1.54069215    0.28542376
 C                 -0.02103284    3.64222678    1.45042907
 H                 -1.74963207    2.35739495    1.36793885
 C                  2.03103912    2.72649666    0.59022674
 H                  1.91597323    0.70811129   -0.19062737
 C                  1.33467033    3.77942207    1.17428189
 H                 -0.57295857    4.46971971    1.90805467
 H                  3.09799587    2.83086433    0.36805140
 H                  1.85227844    4.71364058    1.41424244
 C                 -0.26324515   -1.08272914    1.01421365
 C                  0.62824368   -0.98112965    2.08194739
 C                 -0.79200070   -2.33652499    0.68952637
 C                  0.98869784   -2.11153941    2.80844198
 H                  1.04952745   -0.00423929    2.35135836
 C                 -0.42990862   -3.46370137    1.41508876
 H                 -1.49344435   -2.42493257   -0.14883041
 C                  0.46210218   -3.35388741    2.47759222
 H                  1.68976826   -2.01815312    3.64422834
 H                 -0.84845290   -4.44000016    1.15002446
 H                  0.74641155   -4.24251280    3.04996229

 1 2 1.0 3 1.0 14 1.0 25 1.0
 2
 3 4 1.5 5 1.5
 4 6 1.5 7 1.0
 5 8 1.5 9 1.0
 6 10 1.5 11 1.0
 7
 8 10 1.5 12 1.0
 9
 10 13 1.0
 11
 12
 13
 14 15 1.5 16 1.5
 15 17 1.5 18 1.0
 16 19 1.5 20 1.0
 17 21 1.5 22 1.0
 18
 19 21 1.5 23 1.0
 20
 21 24 1.0
 22
 23
 24
 25 26 1.5 27 1.5
 26 28 1.5 29 1.0
 27 30 1.5 31 1.0
 28 32 1.5 33 1.0
 29
 30 32 1.5 34 1.0
 31
 32 35 1.0
 33
 34
 35

