%nprocshared=12
# opt freq=noraman hf/6-311g geom=connectivity

M0001

0 1
 C                 -0.75845811   -0.08948858   -0.13196839
 H                 -1.84837041   -0.27101024   -0.33320815
 C                 -0.50463697    1.38536529   -0.31871203
 C                 -1.57414118    2.22319930   -0.64284981
 C                  0.77238754    1.93519681   -0.18425259
 C                 -1.36791700    3.58594698   -0.82784521
 H                 -2.58264655    1.80725937   -0.75290106
 C                  0.97627551    3.29704494   -0.36992792
 H                  1.61793981    1.27191975    0.05766910
 C                 -0.09382805    4.12542271   -0.69135690
 H                 -2.21248331    4.23455287   -1.08235914
 H                  1.98199296    3.71642632   -0.26418423
 H                  0.06707004    5.19822993   -0.83774691
 C                 -0.53825587   -0.58376553    1.27651078
 C                 -0.24315329    0.27380483    2.33544282
 C                 -0.69067638   -1.95072827    1.53344989
 C                 -0.09843681   -0.22505004    3.62628648
 H                 -0.12397840    1.34927541    2.15205677
 C                 -0.54424906   -2.44670456    2.82196463
 H                 -0.92213999   -2.63188437    0.70583424
 C                 -0.24763214   -1.58401409    3.87291123
 H                  0.13318142    0.45919747    4.44902311
 H                 -0.66319488   -3.51857345    3.01024923
 H                 -0.13341749   -1.97506185    4.88880883
 C                  0.03802387   -0.89741963   -1.12819701
 C                  1.42756586   -0.99916406   -1.03536847
 C                 -0.62654544   -1.56162672   -2.16122132
 C                  2.14035422   -1.75856443   -1.95513303
 H                  1.95094930   -0.45453976   -0.23480330
 C                  0.08927188   -2.31860970   -3.08236270
 H                 -1.71683854   -1.48744158   -2.24960398
 C                  1.47210205   -2.42094676   -2.97967453
 H                  3.22945148   -1.83337686   -1.87245385
 H                 -0.43919838   -2.83535885   -3.89012663
 H                  2.03363240   -3.01951253   -3.70394996

 1 2 1.0 3 1.0 14 1.0 25 1.0
 2
 3 4 1.5 5 1.5
 4 6 1.5 7 1.0
 5 8 1.5 9 1.0
 6 10 1.5 11 1.0
 7
 8 10 1.5 12 1.0
 9
 10 13 1.0
 11
 12
 13
 14 15 1.5 16 1.5
 15 17 1.5 18 1.0
 16 19 1.5 20 1.0
 17 21 1.5 22 1.0
 18
 19 21 1.5 23 1.0
 20
 21 24 1.0
 22
 23
 24
 25 26 1.5 27 1.5
 26 28 1.5 29 1.0
 27 30 1.5 31 1.0
 28 32 1.5 33 1.0
 29
 30 32 1.5 34 1.0
 31
 32 35 1.0
 33
 34
 35

