%nprocshared=12
# opt freq=noraman hf/6-311g geom=connectivity

M0001

0 1
 C                  0.25647713    0.71575784    0.14451084
 H                  0.57655602    1.76603731    0.38127554
 C                  1.50706474   -0.08764620   -0.11020783
 C                  1.46411772   -1.46221337   -0.35464242
 C                  2.74420955    0.56063625   -0.09304825
 C                  2.63577817   -2.17520044   -0.57681627
 H                  0.48953341   -1.97589218   -0.35629853
 C                  3.91542157   -0.15466613   -0.31652494
 H                  2.79512164    1.63923030    0.09758325
 C                  3.86386780   -1.52270626   -0.55887965
 H                  2.59012620   -3.25279122   -0.76449179
 H                  4.88028796    0.36235529   -0.30065433
 H                  4.78681531   -2.08476310   -0.73366388
 C                 -0.49227719    0.17970923    1.34112846
 C                 -1.15795164   -1.04674255    1.29230826
 C                 -0.52711044    0.92783378    2.51970642
 C                 -1.85370928   -1.51402188    2.40046680
 H                 -1.10757269   -1.64587058    0.37044858
 C                 -1.22136660    0.45656508    3.62857824
 H                 -0.00536337    1.89049662    2.57428242
 C                 -1.88780613   -0.76235725    3.57031106
 H                 -2.37426528   -2.47586689    2.35127888
 H                 -1.24272467    1.04853434    4.54933628
 H                 -2.43634211   -1.13031758    4.44323666
 C                 -0.65397587    0.84665084   -1.05179159
 C                 -0.35192192    0.29307667   -2.29486631
 C                 -1.82710669    1.59659497   -0.91009168
 C                 -1.20764667    0.48138413   -3.37585964
 H                  0.56620447   -0.29404697   -2.42481578
 C                 -2.68035431    1.78160428   -1.98934757
 H                 -2.07211761    2.03445474    0.06488761
 C                 -2.37221985    1.22379695   -3.22656535
 H                 -0.95858358    0.04190089   -4.34718316
 H                 -3.59658635    2.36797818   -1.86586051
 H                 -3.04457944    1.37050483   -4.07773002

 1 2 1.0 3 1.0 14 1.0 25 1.0
 2
 3 4 1.5 5 1.5
 4 6 1.5 7 1.0
 5 8 1.5 9 1.0
 6 10 1.5 11 1.0
 7
 8 10 1.5 12 1.0
 9
 10 13 1.0
 11
 12
 13
 14 15 1.5 16 1.5
 15 17 1.5 18 1.0
 16 19 1.5 20 1.0
 17 21 1.5 22 1.0
 18
 19 21 1.5 23 1.0
 20
 21 24 1.0
 22
 23
 24
 25 26 1.5 27 1.5
 26 28 1.5 29 1.0
 27 30 1.5 31 1.0
 28 32 1.5 33 1.0
 29
 30 32 1.5 34 1.0
 31
 32 35 1.0
 33
 34
 35

