%nprocshared=12
# opt freq=noraman hf/6-311g geom=connectivity

M0001

0 1
 C                 -0.21820814   -0.10657238    0.72930129
 H                 -0.55052315   -0.32379943    1.78082686
 C                 -1.45974936   -0.07095182   -0.12783779
 C                 -1.39280484    0.03652535   -1.51797516
 C                 -2.71077629   -0.16947002    0.48570576
 C                 -2.55308327    0.03577360   -2.28286727
 H                 -0.40763338    0.14330845   -1.99712028
 C                 -3.87107572   -0.16627326   -0.28039070
 H                 -2.78139065   -0.25082160    1.57687438
 C                 -3.79478228   -0.06745809   -1.66539648
 H                 -2.48720657    0.11727362   -3.37264494
 H                 -4.84712094   -0.24325606    0.20967759
 H                 -4.70906531   -0.06931439   -2.26730734
 C                  0.50689492    1.21533334    0.77844715
 C                  0.96161111    1.67772048    2.01707677
 C                  0.74331560    1.98942769   -0.35880964
 C                  1.63630681    2.88882940    2.11320865
 H                  0.78733214    1.08248048    2.92130951
 C                  1.41595661    3.20206699   -0.26052195
 H                  0.38506366    1.63655833   -1.33926914
 C                  1.86442210    3.65447263    0.97483234
 H                  1.98790921    3.24043551    3.08856900
 H                  1.59103977    3.80097699   -1.16011645
 H                  2.39398105    4.60937954    1.05168311
 C                  0.67123462   -1.25452484    0.31559041
 C                  1.72314125   -1.10377151   -0.58749856
 C                  0.41840495   -2.51849952    0.85845737
 C                  2.50924876   -2.19529653   -0.94145422
 H                  1.93934799   -0.11661008   -1.01550818
 C                  1.20331102   -3.60766971    0.50175872
 H                 -0.40670870   -2.65397477    1.56748318
 C                  2.25134190   -3.44854648   -0.39930604
 H                  3.33405824   -2.06370052   -1.64931092
 H                  0.99593286   -4.59308305    0.93145790
 H                  2.87027412   -4.30696823   -0.67892489

 1 2 1.0 3 1.0 14 1.0 25 1.0
 2
 3 4 1.5 5 1.5
 4 6 1.5 7 1.0
 5 8 1.5 9 1.0
 6 10 1.5 11 1.0
 7
 8 10 1.5 12 1.0
 9
 10 13 1.0
 11
 12
 13
 14 15 1.5 16 1.5
 15 17 1.5 18 1.0
 16 19 1.5 20 1.0
 17 21 1.5 22 1.0
 18
 19 21 1.5 23 1.0
 20
 21 24 1.0
 22
 23
 24
 25 26 1.5 27 1.5
 26 28 1.5 29 1.0
 27 30 1.5 31 1.0
 28 32 1.5 33 1.0
 29
 30 32 1.5 34 1.0
 31
 32 35 1.0
 33
 34
 35

