%nprocshared=12
# opt freq=noraman hf/6-311g geom=connectivity

M0001

0 1
 C                  0.46434695    0.12484350   -0.60050045
 H                  1.12876058    0.37142157   -1.47285306
 C                 -0.96005337    0.31429551   -1.06176891
 C                 -2.03741930    0.23060745   -0.17817303
 C                 -1.20563109    0.60250994   -2.40636808
 C                 -3.33571382    0.44139241   -0.62640568
 H                 -1.84384896   -0.02574035    0.87458071
 C                 -2.50537280    0.81008634   -2.85415438
 H                 -0.37120969    0.66669121   -3.11457187
 C                 -3.57197739    0.73386232   -1.96531535
 H                 -4.17211519    0.37624831    0.07686903
 H                 -2.68793181    1.03593516   -3.90986616
 H                 -4.59430296    0.90185154   -2.31871781
 C                  0.77813789   -1.30004208   -0.21762748
 C                 -0.07590053   -2.07565707    0.56823995
 C                  1.97670431   -1.86090614   -0.66911865
 C                  0.25803302   -3.38558237    0.89275964
 H                 -1.02520975   -1.64469241    0.92535426
 C                  2.31034416   -3.16965334   -0.34149660
 H                  2.66147750   -1.26649923   -1.28565147
 C                  1.45152346   -3.93555994    0.43943149
 H                 -0.42306525   -3.98386107    1.50664129
 H                  3.25183325   -3.59785617   -0.70063814
 H                  1.71393769   -4.96700017    0.69516661
 C                  0.79880237    1.11858646    0.48604184
 C                  1.21515924    2.39924625    0.10781812
 C                  0.70099274    0.81195322    1.84278886
 C                  1.52513953    3.35173567    1.07025305
 H                  1.29416181    2.65673216   -0.95488759
 C                  1.01447406    1.76644943    2.80482844
 H                  0.38347242   -0.19093990    2.15550197
 C                  1.42587932    3.03735067    2.42180376
 H                  1.84832749    4.35171604    0.76325669
 H                  0.93668363    1.51261877    3.86702508
 H                  1.67156070    3.78785631    3.17975380

 1 2 1.0 3 1.0 14 1.0 25 1.0
 2
 3 4 1.5 5 1.5
 4 6 1.5 7 1.0
 5 8 1.5 9 1.0
 6 10 1.5 11 1.0
 7
 8 10 1.5 12 1.0
 9
 10 13 1.0
 11
 12
 13
 14 15 1.5 16 1.5
 15 17 1.5 18 1.0
 16 19 1.5 20 1.0
 17 21 1.5 22 1.0
 18
 19 21 1.5 23 1.0
 20
 21 24 1.0
 22
 23
 24
 25 26 1.5 27 1.5
 26 28 1.5 29 1.0
 27 30 1.5 31 1.0
 28 32 1.5 33 1.0
 29
 30 32 1.5 34 1.0
 31
 32 35 1.0
 33
 34
 35

