%nprocshared=12
# opt freq=noraman hf/6-311g geom=connectivity

M0001

0 1
 C                  0.01307444   -0.00897310    0.76858545
 H                  0.09606483   -0.03025232    1.88928862
 C                 -1.45227542   -0.17047382    0.44882385
 C                 -2.29564393   -0.68355333    1.43912521
 C                 -1.99588640    0.16734442   -0.79165282
 C                 -3.65273280   -0.85249180    1.19167383
 H                 -1.88661426   -0.95682951    2.41911855
 C                 -3.35415353    0.00045033   -1.03661590
 H                 -1.34094303    0.57675515   -1.57764926
 C                 -4.18558492   -0.51006268   -0.04643186
 H                 -4.30309720   -1.25556362    1.97480054
 H                 -3.76785690    0.27341900   -2.01283224
 H                 -5.25493297   -0.64129827   -0.23987023
 C                  0.57879503    1.31246732    0.30882837
 C                  0.75832148    1.60658800   -1.04394516
 C                  0.95258191    2.25993770    1.26483142
 C                  1.31043866    2.82021771   -1.43527645
 H                  0.43565618    0.87079450   -1.79628498
 C                  1.50128697    3.47537312    0.87183359
 H                  0.81459244    2.04656899    2.33142478
 C                  1.68478362    3.75650171   -0.47768566
 H                  1.44926392    3.03777200   -2.49916370
 H                  1.79060092    4.21202399    1.62837100
 H                  2.12085404    4.71227308   -0.78516002
 C                  0.85995436   -1.14865949    0.25481583
 C                  0.56691230   -1.83127904   -0.92531013
 C                  1.98660325   -1.52359031    0.99400099
 C                  1.38355196   -2.87035651   -1.35919499
 H                 -0.31826037   -1.55448315   -1.51204636
 C                  2.80207815   -2.56011090    0.55760846
 H                  2.23225109   -0.99486805    1.92246512
 C                  2.50218007   -3.23653219   -0.62046678
 H                  1.14136061   -3.40050623   -2.28603466
 H                  3.68240800   -2.84457039    1.14312324
 H                  3.14436783   -4.05403236   -0.96309757

 1 2 1.0 3 1.0 14 1.0 25 1.0
 2
 3 4 1.5 5 1.5
 4 6 1.5 7 1.0
 5 8 1.5 9 1.0
 6 10 1.5 11 1.0
 7
 8 10 1.5 12 1.0
 9
 10 13 1.0
 11
 12
 13
 14 15 1.5 16 1.5
 15 17 1.5 18 1.0
 16 19 1.5 20 1.0
 17 21 1.5 22 1.0
 18
 19 21 1.5 23 1.0
 20
 21 24 1.0
 22
 23
 24
 25 26 1.5 27 1.5
 26 28 1.5 29 1.0
 27 30 1.5 31 1.0
 28 32 1.5 33 1.0
 29
 30 32 1.5 34 1.0
 31
 32 35 1.0
 33
 34
 35

