%nprocshared=12
# opt freq=noraman hf/6-311g geom=connectivity

M0001

0 1
 C                 -0.06561232   -0.77580787    0.04375163
 H                 -0.14005581   -1.89496145    0.09637080
 C                 -1.46480501   -0.22723379   -0.08996807
 C                 -2.53998036   -1.11256622   -0.19150866
 C                 -1.70926585    1.14756473   -0.12327369
 C                 -3.83734316   -0.62850800   -0.32103797
 H                 -2.36372618   -2.19449779   -0.17013006
 C                 -3.00630845    1.62876624   -0.25140163
 H                 -0.85752930    1.84301487   -0.06291277
 C                 -4.07312618    0.74128038   -0.34947580
 H                 -4.67431826   -1.32974406   -0.40109683
 H                 -3.18695554    2.70823539   -0.27677251
 H                 -5.09497449    1.12056140   -0.45064036
 C                  0.61957231   -0.37870183    1.32769794
 C                  2.00776045   -0.50296054    1.43646143
 C                 -0.11061667    0.04283420    2.44009514
 C                  2.65104551   -0.20272553    2.63059784
 H                  2.59070190   -0.83632908    0.56914871
 C                  0.53515420    0.34180289    3.63471034
 H                 -1.20111445    0.14170668    2.37054902
 C                  1.91638085    0.22110121    3.73307445
 H                  3.73900912   -0.30143026    2.70232273
 H                 -0.04907241    0.67231398    4.49973967
 H                  2.42368593    0.45763339    4.67365732
 C                  0.74976558   -0.42010752   -1.17593800
 C                  1.15126463   -1.43065895   -2.05194760
 C                  1.10883822    0.90150795   -1.44905527
 C                  1.90365461   -1.12209337   -3.18014286
 H                  0.87293206   -2.47225636   -1.85278883
 C                  1.86225401    1.20694630   -2.57573110
 H                  0.77167463    1.69825351   -0.76801124
 C                  2.26217199    0.19522793   -3.44276336
 H                  2.21371359   -1.92025147   -3.86246437
 H                  2.13937107    2.24605526   -2.78075712
 H                  2.85585404    0.43602745   -4.33035908

 1 2 1.0 3 1.0 14 1.0 25 1.0
 2
 3 4 1.5 5 1.5
 4 6 1.5 7 1.0
 5 8 1.5 9 1.0
 6 10 1.5 11 1.0
 7
 8 10 1.5 12 1.0
 9
 10 13 1.0
 11
 12
 13
 14 15 1.5 16 1.5
 15 17 1.5 18 1.0
 16 19 1.5 20 1.0
 17 21 1.5 22 1.0
 18
 19 21 1.5 23 1.0
 20
 21 24 1.0
 22
 23
 24
 25 26 1.5 27 1.5
 26 28 1.5 29 1.0
 27 30 1.5 31 1.0
 28 32 1.5 33 1.0
 29
 30 32 1.5 34 1.0
 31
 32 35 1.0
 33
 34
 35

