%nprocshared=12
# opt freq=noraman hf/6-311g geom=connectivity

M0001

0 1
 C                  0.00000000    0.00000000   -0.79581718
 H                  0.00000000    0.00000000   -1.91852503
 C                  0.95087489   -1.08510483   -0.35542656
 C                  0.80580487   -1.74334381    0.86655156
 C                  2.00897608   -1.43739749   -1.19769830
 C                  1.70280941   -2.73812369    1.23976006
 H                 -0.02868564   -1.47750289    1.52881853
 C                  2.90538186   -2.43038638   -0.82086155
 H                  2.13641889   -0.92781129   -2.15976534
 C                  2.75412554   -3.08291701    0.39803019
 H                  1.57794385   -3.25066324    2.19907739
 H                  3.73200122   -2.69917207   -1.48650001
 H                  3.45994474   -3.86595556    0.69279478
 C                  0.46429091    1.36603424   -0.35542656
 C                  0.24033468    2.45852305   -1.19769830
 C                  1.10687757    1.56951935    0.86655156
 C                  0.65208539    3.73132769   -0.82086155
 H                 -0.26470129    2.31409873   -2.15976534
 C                  1.51987998    2.84373805    1.23976006
 H                  1.29389785    0.71390895    1.52881853
 C                  1.29282167    3.92660118    0.39803019
 H                  0.47155096    4.58159392   -1.48650001
 H                  2.02618497    2.99187106    2.19907739
 H                  1.61804337    4.92937783    0.69279478
 C                 -1.41516575   -0.28092941   -0.35542656
 C                 -1.91268243    0.17382441    0.86655156
 C                 -2.24931076   -1.02112556   -1.19769830
 C                 -3.22268939   -0.10561436    1.23976006
 H                 -1.26521221    0.76359393    1.52881853
 C                 -3.55746729   -1.30094131   -0.82086155
 H                 -1.87171760   -1.38628738   -2.15976534
 C                 -4.04694720   -0.84368422    0.39803019
 H                 -3.60412887    0.25879212    2.19907739
 H                 -4.20355218   -1.88242180   -1.48650001
 H                 -5.07798811   -1.06342222    0.69279478

 1 2 1.0 3 1.0 14 1.0 25 1.0
 2
 3 4 1.5 5 1.5
 4 6 1.5 7 1.0
 5 8 1.5 9 1.0
 6 10 1.5 11 1.0
 7
 8 10 1.5 12 1.0
 9
 10 13 1.0
 11
 12
 13
 14 15 1.5 16 1.5
 15 17 1.5 18 1.0
 16 19 1.5 20 1.0
 17 21 1.5 22 1.0
 18
 19 21 1.5 23 1.0
 20
 21 24 1.0
 22
 23
 24
 25 26 1.5 27 1.5
 26 28 1.5 29 1.0
 27 30 1.5 31 1.0
 28 32 1.5 33 1.0
 29
 30 32 1.5 34 1.0
 31
 32 35 1.0
 33
 34
 35

