%nprocshared=12
# opt freq=noraman hf/6-311g geom=connectivity

M0001

0 1
 C                  0.04335639    0.74965011    0.16748571
 H                  0.04319764    1.85027889    0.39512845
 C                  1.49048842    0.32680653    0.11900572
 C                  1.89121477   -1.00600918    0.22565817
 C                  2.46636747    1.31493778   -0.04358801
 C                  3.23870711   -1.34458107    0.17546385
 H                  1.13056073   -1.79223513    0.35824347
 C                  3.81280188    0.97449938   -0.09673953
 H                  2.17092114    2.36723574   -0.13127342
 C                  4.20244985   -0.35592160    0.01355223
 H                  3.53909310   -2.39360089    0.26449538
 H                  4.56774577    1.75696123   -0.22504062
 H                  5.26319507   -0.62310563   -0.02625820
 C                 -0.73695150    0.07081789    1.26645917
 C                 -1.05213058   -1.28796376    1.21475146
 C                 -1.17454224    0.82814858    2.35570920
 C                 -1.79968176   -1.87801391    2.22655778
 H                 -0.68073134   -1.88905795    0.37086959
 C                 -1.91945331    0.23578672    3.36914184
 H                 -0.93169428    1.89568462    2.41425033
 C                 -2.23677376   -1.11649404    3.30494232
 H                 -2.04303159   -2.94386066    2.17319713
 H                 -2.25806409    0.83759360    4.21894399
 H                 -2.82702632   -1.58036843    4.10158771
 C                 -0.66588844    0.58606809   -1.15542254
 C                 -1.67843932    1.49419234   -1.48203328
 C                 -0.35651417   -0.43460438   -2.05375537
 C                 -2.36647341    1.37951709   -2.68341968
 H                 -1.93550410    2.30056263   -0.78503815
 C                 -1.04510030   -0.54611198   -3.25724520
 H                  0.44107358   -1.14991719   -1.81555200
 C                 -2.05105662    0.35882297   -3.57453125
 H                 -3.15841637    2.09483921   -2.92849336
 H                 -0.79105723   -1.35033588   -3.95551003
 H                 -2.59264249    0.26977837   -4.52154299

 1 2 1.0 3 1.0 14 1.0 25 1.0
 2
 3 4 1.5 5 1.5
 4 6 1.5 7 1.0
 5 8 1.5 9 1.0
 6 10 1.5 11 1.0
 7
 8 10 1.5 12 1.0
 9
 10 13 1.0
 11
 12
 13
 14 15 1.5 16 1.5
 15 17 1.5 18 1.0
 16 19 1.5 20 1.0
 17 21 1.5 22 1.0
 18
 19 21 1.5 23 1.0
 20
 21 24 1.0
 22
 23
 24
 25 26 1.5 27 1.5
 26 28 1.5 29 1.0
 27 30 1.5 31 1.0
 28 32 1.5 33 1.0
 29
 30 32 1.5 34 1.0
 31
 32 35 1.0
 33
 34
 35

