%nprocshared=12
# opt freq=noraman hf/6-311g geom=connectivity

M0001

0 1
 C                  0.00000000    0.00000000    0.77449064
 H                  0.00000000    0.00000000    1.89917259
 C                 -0.24351737    1.42492029    0.34054387
 C                 -0.41140954    2.40732621    1.31986315
 C                 -0.30649406    1.79342260   -1.00416992
 C                 -0.63751618    3.73036898    0.95773441
 H                 -0.36218558    2.13656060    2.38129593
 C                 -0.53511086    3.11531203   -1.36547834
 H                 -0.17349775    1.01520655   -1.77685962
 C                 -0.70054236    4.08723802   -0.38470488
 H                 -0.76772384    4.49226753    1.73305396
 H                 -0.58360577    3.39013076   -2.42404260
 H                 -0.87965938    5.12915770   -0.66845702
 C                  1.35577582   -0.50156790    0.34054387
 C                  1.70639655   -0.63127967   -1.00416992
 C                  2.29051044   -0.84737200    1.31986315
 C                  2.96549480   -1.09423642   -1.36547834
 H                  0.96594353   -0.35734980   -1.77685962
 C                  3.54935241   -1.31307931    0.95773441
 H                  2.03140853   -0.75461840    2.38129593
 C                  3.88992311   -1.43693150   -0.38470488
 H                  3.22774224   -1.18964798   -2.42404260
 H                  4.27427974   -1.58126544    1.73305396
 H                  4.88181057   -1.80277152   -0.66845702
 C                 -1.11225845   -0.92335239    0.34054387
 C                 -1.39990253   -1.16214293   -1.00416992
 C                 -1.87910090   -1.55995420    1.31986315
 C                 -2.43038394   -2.02107561   -1.36547834
 H                 -0.79244579   -0.65785670   -1.77685962
 C                 -2.91183623   -2.41728972    0.95773441
 H                 -1.66922301   -1.38194221    2.38129593
 C                 -3.18938076   -2.65030652   -0.38470488
 H                 -2.64413647   -2.20048278   -2.42404260
 H                 -3.50655589   -2.91100214    1.73305396
 H                 -4.00215118   -3.32638623   -0.66845702

 1 2 1.0 3 1.0 14 1.0 25 1.0
 2
 3 4 1.5 5 1.5
 4 6 1.5 7 1.0
 5 8 1.5 9 1.0
 6 10 1.5 11 1.0
 7
 8 10 1.5 12 1.0
 9
 10 13 1.0
 11
 12
 13
 14 15 1.5 16 1.5
 15 17 1.5 18 1.0
 16 19 1.5 20 1.0
 17 21 1.5 22 1.0
 18
 19 21 1.5 23 1.0
 20
 21 24 1.0
 22
 23
 24
 25 26 1.5 27 1.5
 26 28 1.5 29 1.0
 27 30 1.5 31 1.0
 28 32 1.5 33 1.0
 29
 30 32 1.5 34 1.0
 31
 32 35 1.0
 33
 34
 35

