%nprocshared=12
# opt freq=noraman hf/6-311g geom=connectivity

M0001

0 1
 C                  0.00000000    0.00000000   -0.77444355
 H                  0.00000000    0.00000000   -1.89912216
 C                  0.72300244    1.25227695   -0.34054001
 C                  0.90997500    1.57612290    1.00416490
 C                  1.22130802    2.11536753   -1.31984299
 C                  1.58074044    2.73792276    1.36549802
 H                  0.51528984    0.89250818    1.77698265
 C                  1.89242383    3.27777421   -0.95773843
 H                  1.08375151    1.87711262   -2.38133302
 C                  2.07366186    3.59168771    0.38470916
 H                  1.72025935    2.97957658    2.42408822
 H                  2.27888510    3.94714474   -1.73320403
 H                  2.60226108    4.50724843    0.66840400
 C                 -1.44600488    0.00000000   -0.34054001
 C                 -2.44261603    0.00000000   -1.31984299
 C                 -1.81994994    0.00000000    1.00416490
 C                 -3.78484767    0.00000000   -0.95773843
 H                 -2.16750297    0.00000000   -2.38133302
 C                 -3.16148089    0.00000000    1.36549802
 H                 -1.03057968    0.00000000    1.77698265
 C                 -4.14732371    0.00000000    0.38470916
 H                 -4.55777015    0.00000000   -1.73320403
 H                 -3.44051870    0.00000000    2.42408822
 H                 -5.20452217    0.00000000    0.66840400
 C                  0.72300244   -1.25227695   -0.34054001
 C                  0.90997500   -1.57612290    1.00416490
 C                  1.22130802   -2.11536753   -1.31984299
 C                  1.58074044   -2.73792276    1.36549802
 H                  0.51528984   -0.89250818    1.77698265
 C                  1.89242383   -3.27777421   -0.95773843
 H                  1.08375151   -1.87711262   -2.38133302
 C                  2.07366186   -3.59168771    0.38470916
 H                  1.72025935   -2.97957658    2.42408822
 H                  2.27888510   -3.94714474   -1.73320403
 H                  2.60226108   -4.50724843    0.66840400

 1 2 1.0 3 1.0 14 1.0 25 1.0
 2
 3 4 1.5 5 1.5
 4 6 1.5 7 1.0
 5 8 1.5 9 1.0
 6 10 1.5 11 1.0
 7
 8 10 1.5 12 1.0
 9
 10 13 1.0
 11
 12
 13
 14 15 1.5 16 1.5
 15 17 1.5 18 1.0
 16 19 1.5 20 1.0
 17 21 1.5 22 1.0
 18
 19 21 1.5 23 1.0
 20
 21 24 1.0
 22
 23
 24
 25 26 1.5 27 1.5
 26 28 1.5 29 1.0
 27 30 1.5 31 1.0
 28 32 1.5 33 1.0
 29
 30 32 1.5 34 1.0
 31
 32 35 1.0
 33
 34
 35

