%nprocshared=12
# opt freq=noraman hf/6-311g geom=connectivity

M0001

0 1
 C                 -0.17657422    0.70474985    0.25140745
 H                 -0.40042758    1.75932099    0.56928370
 C                 -0.39701095    0.65177222   -1.24143363
 C                 -0.82381314   -0.50179042   -1.89851085
 C                 -0.15353078    1.80833498   -1.98937270
 C                 -1.00536052   -0.50038974   -3.27764001
 H                 -1.02705324   -1.41479215   -1.32444916
 C                 -0.33317651    1.80678163   -3.36690628
 H                  0.18529665    2.72249698   -1.48799038
 C                 -0.76007115    0.65191615   -4.01464130
 H                 -1.34356283   -1.41157661   -3.78169324
 H                 -0.13823306    2.71712821   -3.94305759
 H                 -0.90275384    0.65173888   -5.09989917
 C                  1.27405148    0.44399617    0.57583094
 C                  1.91862118   -0.72870512    0.17874359
 C                  1.99778953    1.41295141    1.27498882
 C                  3.26396723   -0.92627847    0.46494302
 H                  1.33903466   -1.50358937   -0.34576410
 C                  3.34282623    1.21239731    1.56406078
 H                  1.50562860    2.33792985    1.59807084
 C                  3.97938243    0.04516369    1.15664616
 H                  3.75915886   -1.84881455    0.14522037
 H                  3.90161756    1.97734070    2.11302174
 H                  5.03958556   -0.10921086    1.38111362
 C                 -1.12497252   -0.18050977    1.02104205
 C                 -2.25916981    0.40178465    1.59522307
 C                 -0.91746317   -1.55177905    1.17876423
 C                 -3.16317473   -0.37272499    2.31244970
 H                 -2.44075587    1.47700752    1.47995927
 C                 -1.82096533   -2.32455220    1.89931478
 H                 -0.02484186   -2.02014574    0.73344014
 C                 -2.94571807   -1.73757959    2.46739402
 H                 -4.04811758    0.09432860    2.75686630
 H                 -1.64337095   -3.39822442    2.01894239
 H                 -3.65684234   -2.34647686    3.03463133

 1 2 1.0 3 1.0 14 1.0 25 1.0
 2
 3 4 1.5 5 1.5
 4 6 1.5 7 1.0
 5 8 1.5 9 1.0
 6 10 1.5 11 1.0
 7
 8 10 1.5 12 1.0
 9
 10 13 1.0
 11
 12
 13
 14 15 1.5 16 1.5
 15 17 1.5 18 1.0
 16 19 1.5 20 1.0
 17 21 1.5 22 1.0
 18
 19 21 1.5 23 1.0
 20
 21 24 1.0
 22
 23
 24
 25 26 1.5 27 1.5
 26 28 1.5 29 1.0
 27 30 1.5 31 1.0
 28 32 1.5 33 1.0
 29
 30 32 1.5 34 1.0
 31
 32 35 1.0
 33
 34
 35

