%nprocshared=12
# opt freq=noraman hf/6-311g geom=connectivity

M0001

0 1
 C                  0.03427074   -0.03403673   -0.77406953
 H                  0.13174836   -0.10567606   -1.89059108
 C                 -1.43778422    0.03047309   -0.45211380
 C                 -2.36328760    0.02425103   -1.49810629
 C                 -1.90096158    0.08736976    0.86439257
 C                 -3.72686566    0.07445471   -1.22989318
 H                 -2.01616654   -0.02053721   -2.53702623
 C                 -3.26383144    0.13712501    1.13006436
 H                 -1.17100273    0.07831876    1.68933995
 C                 -4.17964935    0.13145541    0.08317418
 H                 -4.44471185    0.06836658   -2.05637358
 H                 -3.61546634    0.17895018    2.16587179
 H                 -5.25337893    0.17016377    0.29273350
 C                  0.65559791   -1.27220836   -0.17342186
 C                  0.82239547   -1.40458935    1.20658033
 C                  1.07716082   -2.30511499   -1.01331966
 C                  1.40701161   -2.54759316    1.73794498
 H                  0.46789582   -0.59892403    1.86742111
 C                  1.65923791   -3.44945709   -0.47892319
 H                  0.94956105   -2.21696660   -2.09871125
 C                  1.82747738   -3.57181149    0.89583612
 H                  1.53495703   -2.64096400    2.82121383
 H                  1.98571995   -4.25544198   -1.14419774
 H                  2.28795901   -4.47229315    1.31456043
 C                  0.80688248    1.20629584   -0.39821773
 C                  0.18644206    2.36075602    0.07738408
 C                  2.19313658    1.21091545   -0.58858872
 C                  0.93718926    3.49695249    0.36282419
 H                 -0.90049113    2.37548757    0.22816006
 C                  2.94061702    2.34524525   -0.30169385
 H                  2.68859397    0.30683861   -0.96240382
 C                  2.31379476    3.49240416    0.17541956
 H                  0.43784776    4.39709574    0.73584367
 H                  4.02501598    2.33591617   -0.45214153
 H                  2.90308464    4.38677880    0.40102840

 1 2 1.0 3 1.0 14 1.0 25 1.0
 2
 3 4 1.5 5 1.5
 4 6 1.5 7 1.0
 5 8 1.5 9 1.0
 6 10 1.5 11 1.0
 7
 8 10 1.5 12 1.0
 9
 10 13 1.0
 11
 12
 13
 14 15 1.5 16 1.5
 15 17 1.5 18 1.0
 16 19 1.5 20 1.0
 17 21 1.5 22 1.0
 18
 19 21 1.5 23 1.0
 20
 21 24 1.0
 22
 23
 24
 25 26 1.5 27 1.5
 26 28 1.5 29 1.0
 27 30 1.5 31 1.0
 28 32 1.5 33 1.0
 29
 30 32 1.5 34 1.0
 31
 32 35 1.0
 33
 34
 35

