%nprocshared=12
# opt freq=noraman hf/6-311g geom=connectivity

M0001

0 1
 C                  0.00000000    0.00000000    0.79549173
 H                  0.00000000    0.00000000    1.91819439
 C                  0.65028391   -1.28826910    0.35524822
 C                  0.58020914   -2.40131825    1.19746027
 C                  1.31530911   -1.40035080   -0.86654161
 C                  1.16533466   -3.60439473    0.82082287
 H                  0.05947005   -2.32860813    2.15929528
 C                  1.90197966   -2.60461211   -1.23952812
 H                  1.38128121   -0.52713060   -1.52890685
 C                  1.82766968   -3.70850432   -0.39780270
 H                  1.10454945   -4.47157982    1.48634925
 H                  2.42436916   -2.68080443   -2.19865654
 H                  2.28969434   -4.65614811   -0.69230217
 C                 -1.44081571    0.08097216    0.35524822
 C                 -2.36970716    0.69818329    1.19746027
 C                 -1.87039392   -0.43891570   -0.86654161
 C                 -3.70416475    0.79298793    0.82082287
 H                 -2.04636885    1.11280149    2.15929528
 C                 -3.20665014   -0.34485666   -1.23952812
 H                 -1.14714912   -0.93265934   -1.52890685
 C                 -4.12549377    0.27144375   -0.39780270
 H                 -4.42477642    1.27922208    1.48634925
 H                 -3.53382932   -0.75916308   -2.19865654
 H                 -5.17718974    0.34514057   -0.69230217
 C                  0.79053181    1.20729694    0.35524822
 C                  1.78949801    1.70313496    1.19746027
 C                  0.55508481    1.83926644   -0.86654161
 C                  2.53883009    2.81140680    0.82082287
 H                  1.98689875    1.21580664    2.15929528
 C                  1.30467042    2.94946878   -1.23952812
 H                 -0.23413209    1.45978995   -1.52890685
 C                  2.29782409    3.43706053   -0.39780270
 H                  3.32022703    3.19235780    1.48634925
 H                  1.10946016    3.43996751   -2.19865654
 H                  2.88749540    4.31100755   -0.69230217

 1 2 1.0 3 1.0 14 1.0 25 1.0
 2
 3 4 1.5 5 1.5
 4 6 1.5 7 1.0
 5 8 1.5 9 1.0
 6 10 1.5 11 1.0
 7
 8 10 1.5 12 1.0
 9
 10 13 1.0
 11
 12
 13
 14 15 1.5 16 1.5
 15 17 1.5 18 1.0
 16 19 1.5 20 1.0
 17 21 1.5 22 1.0
 18
 19 21 1.5 23 1.0
 20
 21 24 1.0
 22
 23
 24
 25 26 1.5 27 1.5
 26 28 1.5 29 1.0
 27 30 1.5 31 1.0
 28 32 1.5 33 1.0
 29
 30 32 1.5 34 1.0
 31
 32 35 1.0
 33
 34
 35

